c A SAT instance generated from a 3-CNF formula that had 26 clauses and 13 variables
p cnf 13 26
6 -8 -1 0
-8 12 -7 0
7 9 -13 0
2 -13 4 0
-5 -9 13 0
7 -12 -13 0
-13 2 11 0
8 1 10 0
-3 11 -12 0
9 -3 8 0
4 -8 -2 0
-5 -8 2 0
-12 8 13 0
11 2 -6 0
-13 -9 5 0
5 -9 -1 0
2 -10 -1 0
7 9 -13 0
-7 -9 13 0
-3 -9 1 0
-3 5 11 0
-6 4 -3 0
-2 -8 5 0
-13 -9 1 0
-13 8 -9 0
13 -6 -11 0
